(set-logic QF_BV)
(declare-fun CLOCK_0 () (_ BitVec 1))
(declare-fun CLOCK_1 () (_ BitVec 1))
(declare-fun autoname_1 () (_ BitVec 1))
(declare-fun autoname_2 () (_ BitVec 1))
(declare-fun b_berr_0 () (_ BitVec 1))
(declare-fun b_berr_1 () (_ BitVec 1))
(declare-fun b_sysres_0 () (_ BitVec 1))
(declare-fun b_sysres_1 () (_ BitVec 1))
(declare-fun berr_0 () (_ BitVec 1))
(declare-fun dtack_frm_vme_0 () (_ BitVec 1))
(declare-fun dtack_frm_vme_1 () (_ BitVec 1))
(declare-fun state0 () (_ BitVec 4))
(declare-fun mvme_dtack_0 () (_ BitVec 1))
(declare-fun mvme_dtack_1 () (_ BitVec 1))
(declare-fun power_on_rst_0 () (_ BitVec 1))
(declare-fun power_on_rst_1 () (_ BitVec 1))
(declare-fun reset_0 () (_ BitVec 1))
(declare-fun sig_local_dtack_0 () (_ BitVec 1))
(declare-fun vme_dtack_0 () (_ BitVec 1))
(declare-fun vme_dtack_1 () (_ BitVec 1))
(declare-fun vme_iack_in_1 () (_ BitVec 1))
(define-fun $e1 () (_ BitVec 4) (_ bv0 4))
(define-fun $e2 () (_ BitVec 4) (_ bv14 4))
(define-fun $e3 () (_ BitVec 4) (_ bv2 4))
(define-fun $e4 () (_ BitVec 4) (_ bv12 4))
(define-fun $e5 () (_ BitVec 4) (_ bv4 4))
(define-fun $e6 () (_ BitVec 4) (_ bv10 4))
(define-fun $e7 () (_ BitVec 4) (_ bv6 4))
(define-fun $e8 () (_ BitVec 4) (_ bv8 4))
(define-fun $e9 () (_ BitVec 1) (ite (= b_sysres_0 b_sysres_1) #b1 #b0))
(define-fun $e10 () (_ BitVec 1) (ite (= power_on_rst_0 power_on_rst_1) #b1 #b0))
(define-fun $e11 () (_ BitVec 1) (bvand $e9 $e10))
(define-fun $e12 () (_ BitVec 1) (bvand b_sysres_1 power_on_rst_1))
(define-fun $e13 () (_ BitVec 1) (bvand reset_0 $e12))
(define-fun $e14 () (_ BitVec 1) (bvand (bvnot reset_0) (bvnot $e12)))
(define-fun $e15 () (_ BitVec 1) (bvand (bvnot $e13) (bvnot $e14)))
(define-fun $e16 () (_ BitVec 1) (bvand (bvnot $e11) $e15))
(define-fun $e17 () (_ BitVec 1) (bvand reset_0 $e11))
(define-fun $e18 () (_ BitVec 1) (bvand (bvnot $e11) $e12))
(define-fun $e19 () (_ BitVec 1) (bvand (bvnot $e17) (bvnot $e18)))
(define-fun $e20 () (_ BitVec 1) (bvand (bvnot reset_0) $e11))
(define-fun $e21 () (_ BitVec 1) (bvand (bvnot $e11) (bvnot $e12)))
(define-fun $e22 () (_ BitVec 1) (bvand (bvnot $e20) (bvnot $e21)))
(define-fun $e23 () (_ BitVec 1) (bvand $e12 (bvnot $e19)))
(define-fun $e24 () (_ BitVec 1) (bvand (bvnot $e12) (bvnot $e22)))
(define-fun $e25 () (_ BitVec 1) (bvand (bvnot $e23) (bvnot $e24)))
(define-fun $e26 () (_ BitVec 1) (bvand (bvnot $e11) $e25))
(define-fun $e27 () (_ BitVec 1) (ite (= CLOCK_0 CLOCK_1) #b1 #b0))
(define-fun $e28 () (_ BitVec 1) (bvand CLOCK_1 (bvnot $e27)))
(define-fun $e29 () (_ BitVec 1) (ite (= state0 $e1) #b1 #b0))
(define-fun $e30 () (_ BitVec 1) (ite (= state0 (bvnot $e2)) #b1 #b0))
(define-fun $e31 () (_ BitVec 1) (ite (= state0 $e3) #b1 #b0))
(define-fun $e32 () (_ BitVec 1) (ite (= state0 (bvnot $e4)) #b1 #b0))
(define-fun $e33 () (_ BitVec 1) (ite (= state0 $e5) #b1 #b0))
(define-fun $e34 () (_ BitVec 1) (ite (= state0 (bvnot $e6)) #b1 #b0))
(define-fun $e35 () (_ BitVec 1) (bvand autoname_1 autoname_2))
(define-fun $e36 () (_ BitVec 1) (bvand (bvnot sig_local_dtack_0) (bvnot $e35)))
(define-fun $e37 () (_ BitVec 1) (ite (= state0 $e7) #b1 #b0))
(define-fun $e38 () (_ BitVec 1) (ite (= state0 (bvnot $e8)) #b1 #b0))
(define-fun $e39 () (_ BitVec 1) (ite (= state0 $e8) #b1 #b0))
(define-fun $e40 () (_ BitVec 1) (ite (= state0 (bvnot $e7)) #b1 #b0))
(define-fun $e41 () (_ BitVec 1) (bvand (bvnot autoname_1) (bvnot vme_iack_in_1)))
(define-fun $e42 () (_ BitVec 1) (bvand (bvnot sig_local_dtack_0) $e41))
(define-fun $e43 () (_ BitVec 1) (bvand $e40 $e42))
(define-fun $e44 () (_ BitVec 1) (bvand (bvnot $e39) (bvnot $e43)))
(define-fun $e45 () (_ BitVec 1) (bvand sig_local_dtack_0 $e38))
(define-fun $e46 () (_ BitVec 1) (bvand (bvnot $e38) $e44))
(define-fun $e47 () (_ BitVec 1) (bvand (bvnot $e45) (bvnot $e46)))
(define-fun $e48 () (_ BitVec 1) (bvand sig_local_dtack_0 $e37))
(define-fun $e49 () (_ BitVec 1) (bvand (bvnot $e37) (bvnot $e47)))
(define-fun $e50 () (_ BitVec 1) (bvand (bvnot $e48) (bvnot $e49)))
(define-fun $e51 () (_ BitVec 1) (bvand $e34 (bvnot $e36)))
(define-fun $e52 () (_ BitVec 1) (bvand (bvnot $e34) (bvnot $e50)))
(define-fun $e53 () (_ BitVec 1) (bvand (bvnot $e51) (bvnot $e52)))
(define-fun $e54 () (_ BitVec 1) (bvand (bvnot $e33) (bvnot $e53)))
(define-fun $e55 () (_ BitVec 1) (bvand sig_local_dtack_0 $e32))
(define-fun $e56 () (_ BitVec 1) (bvand (bvnot $e32) $e54))
(define-fun $e57 () (_ BitVec 1) (bvand (bvnot $e55) (bvnot $e56)))
(define-fun $e58 () (_ BitVec 1) (bvand sig_local_dtack_0 $e31))
(define-fun $e59 () (_ BitVec 1) (bvand (bvnot $e31) (bvnot $e57)))
(define-fun $e60 () (_ BitVec 1) (bvand (bvnot $e58) (bvnot $e59)))
(define-fun $e61 () (_ BitVec 1) (bvand sig_local_dtack_0 $e30))
(define-fun $e62 () (_ BitVec 1) (bvand (bvnot $e30) (bvnot $e60)))
(define-fun $e63 () (_ BitVec 1) (bvand (bvnot $e61) (bvnot $e62)))
(define-fun $e64 () (_ BitVec 1) (bvand (bvnot $e29) $e63))
(define-fun $e65 () (_ BitVec 1) (bvand $e28 (bvnot $e64)))
(define-fun $e66 () (_ BitVec 1) (bvand sig_local_dtack_0 (bvnot $e28)))
(define-fun $e67 () (_ BitVec 1) (bvand (bvnot $e65) (bvnot $e66)))
(define-fun $e68 () (_ BitVec 1) (bvand reset_0 $e67))
(define-fun $e69 () (_ BitVec 1) (bvand sig_local_dtack_0 $e27))
(define-fun $e70 () (_ BitVec 1) (bvand (bvnot $e27) (bvnot $e68)))
(define-fun $e71 () (_ BitVec 1) (bvand (bvnot $e69) (bvnot $e70)))
(define-fun $e72 () (_ BitVec 1) (bvand (bvnot $e19) $e71))
(define-fun $e73 () (_ BitVec 1) (bvand $e16 (bvnot $e72)))
(define-fun $e74 () (_ BitVec 1) (bvand (bvnot $e16) (bvnot $e71)))
(define-fun $e75 () (_ BitVec 1) (bvand (bvnot $e73) (bvnot $e74)))
(define-fun $e76 () (_ BitVec 1) (bvand (bvnot sig_local_dtack_0) $e35))
(define-fun $e77 () (_ BitVec 1) (bvand (bvnot sig_local_dtack_0) (bvnot $e41)))
(define-fun $e78 () (_ BitVec 1) (bvand $e40 (bvnot $e77)))
(define-fun $e79 () (_ BitVec 1) (bvand sig_local_dtack_0 (bvnot $e40)))
(define-fun $e80 () (_ BitVec 1) (bvand (bvnot $e78) (bvnot $e79)))
(define-fun $e81 () (_ BitVec 1) (bvand (bvnot sig_local_dtack_0) $e39))
(define-fun $e82 () (_ BitVec 1) (bvand (bvnot $e39) (bvnot $e80)))
(define-fun $e83 () (_ BitVec 1) (bvand (bvnot $e81) (bvnot $e82)))
(define-fun $e84 () (_ BitVec 1) (bvand (bvnot $e38) $e83))
(define-fun $e85 () (_ BitVec 1) (bvand (bvnot $e37) $e84))
(define-fun $e86 () (_ BitVec 1) (bvand $e34 (bvnot $e76)))
(define-fun $e87 () (_ BitVec 1) (bvand (bvnot $e34) (bvnot $e85)))
(define-fun $e88 () (_ BitVec 1) (bvand (bvnot $e86) (bvnot $e87)))
(define-fun $e89 () (_ BitVec 1) (bvand (bvnot sig_local_dtack_0) $e33))
(define-fun $e90 () (_ BitVec 1) (bvand (bvnot $e33) (bvnot $e88)))
(define-fun $e91 () (_ BitVec 1) (bvand (bvnot $e89) (bvnot $e90)))
(define-fun $e92 () (_ BitVec 1) (bvand (bvnot $e32) $e91))
(define-fun $e93 () (_ BitVec 1) (bvand (bvnot $e31) $e92))
(define-fun $e94 () (_ BitVec 1) (bvand (bvnot $e30) $e93))
(define-fun $e95 () (_ BitVec 1) (bvand sig_local_dtack_0 $e29))
(define-fun $e96 () (_ BitVec 1) (bvand (bvnot $e29) (bvnot $e94)))
(define-fun $e97 () (_ BitVec 1) (bvand (bvnot $e95) (bvnot $e96)))
(define-fun $e98 () (_ BitVec 1) (bvand $e28 $e97))
(define-fun $e99 () (_ BitVec 1) (bvand reset_0 (bvnot $e98)))
(define-fun $e100 () (_ BitVec 1) (bvand (bvnot reset_0) sig_local_dtack_0))
(define-fun $e101 () (_ BitVec 1) (bvand (bvnot $e99) (bvnot $e100)))
(define-fun $e102 () (_ BitVec 1) (bvand (bvnot $e27) $e101))
(define-fun $e103 () (_ BitVec 1) (bvand sig_local_dtack_0 $e19))
(define-fun $e104 () (_ BitVec 1) (bvand (bvnot $e19) (bvnot $e102)))
(define-fun $e105 () (_ BitVec 1) (bvand (bvnot $e103) (bvnot $e104)))
(define-fun $e106 () (_ BitVec 1) (bvand $e16 (bvnot $e105)))
(define-fun $e107 () (_ BitVec 1) (bvand (bvnot $e16) (bvnot $e102)))
(define-fun $e108 () (_ BitVec 1) (bvand (bvnot $e106) (bvnot $e107)))
(define-fun $e109 () (_ BitVec 1) (bvand (bvnot sig_local_dtack_0) $e38))
(define-fun $e110 () (_ BitVec 1) (bvand (bvnot $e38) (bvnot $e44)))
(define-fun $e111 () (_ BitVec 1) (bvand (bvnot $e109) (bvnot $e110)))
(define-fun $e112 () (_ BitVec 1) (bvand (bvnot sig_local_dtack_0) $e37))
(define-fun $e113 () (_ BitVec 1) (bvand (bvnot $e37) (bvnot $e111)))
(define-fun $e114 () (_ BitVec 1) (bvand (bvnot $e112) (bvnot $e113)))
(define-fun $e115 () (_ BitVec 1) (bvand $e34 $e36))
(define-fun $e116 () (_ BitVec 1) (bvand (bvnot $e34) (bvnot $e114)))
(define-fun $e117 () (_ BitVec 1) (bvand (bvnot $e115) (bvnot $e116)))
(define-fun $e118 () (_ BitVec 1) (bvand (bvnot $e33) $e117))
(define-fun $e119 () (_ BitVec 1) (bvand (bvnot sig_local_dtack_0) $e32))
(define-fun $e120 () (_ BitVec 1) (bvand (bvnot $e32) (bvnot $e118)))
(define-fun $e121 () (_ BitVec 1) (bvand (bvnot $e119) (bvnot $e120)))
(define-fun $e122 () (_ BitVec 1) (bvand (bvnot sig_local_dtack_0) $e31))
(define-fun $e123 () (_ BitVec 1) (bvand (bvnot $e31) (bvnot $e121)))
(define-fun $e124 () (_ BitVec 1) (bvand (bvnot $e122) (bvnot $e123)))
(define-fun $e125 () (_ BitVec 1) (bvand (bvnot sig_local_dtack_0) $e30))
(define-fun $e126 () (_ BitVec 1) (bvand (bvnot $e30) (bvnot $e124)))
(define-fun $e127 () (_ BitVec 1) (bvand (bvnot $e125) (bvnot $e126)))
(define-fun $e128 () (_ BitVec 1) (bvand (bvnot sig_local_dtack_0) (bvnot $e28)))
(define-fun $e129 () (_ BitVec 1) (bvand (bvnot sig_local_dtack_0) $e27))
(define-fun $e130 () (_ BitVec 1) (bvand (bvnot sig_local_dtack_0) $e19))
(define-fun $e131 () (_ BitVec 1) (bvand $e16 $e130))
(define-fun $e132 () (_ BitVec 1) (ite (= dtack_frm_vme_0 dtack_frm_vme_1) #b1 #b0))
(define-fun $e133 () (_ BitVec 1) (bvand (bvnot berr_0) $e132))
(define-fun $e134 () (_ BitVec 1) (bvand dtack_frm_vme_1 (bvnot $e132)))
(define-fun $e135 () (_ BitVec 1) (bvand (bvnot $e133) (bvnot $e134)))
(define-fun $e136 () (_ BitVec 1) (bvand berr_0 $e132))
(define-fun $e137 () (_ BitVec 1) (bvand (bvnot dtack_frm_vme_1) (bvnot $e132)))
(define-fun $e138 () (_ BitVec 1) (bvand (bvnot $e136) (bvnot $e137)))
(define-fun $e139 () (_ BitVec 1) (bvand dtack_frm_vme_1 (bvnot $e135)))
(define-fun $e140 () (_ BitVec 1) (bvand (bvnot dtack_frm_vme_1) (bvnot $e138)))
(define-fun $e141 () (_ BitVec 1) (bvand (bvnot $e139) (bvnot $e140)))
(define-fun $e142 () (_ BitVec 1) (bvand (bvnot $e132) $e141))
(define-fun $e143 () (_ BitVec 1) (bvand b_berr_1 dtack_frm_vme_1))
(define-fun $e144 () (_ BitVec 1) (bvand (bvnot b_berr_1) (bvnot dtack_frm_vme_1)))
(define-fun $e145 () (_ BitVec 1) (bvand (bvnot $e143) (bvnot $e144)))
(define-fun $e146 () (_ BitVec 1) (ite (= b_berr_1 berr_0) #b1 #b0))
(define-fun $e147 () (_ BitVec 1) (bvand $e132 (bvnot $e146)))
(define-fun $e148 () (_ BitVec 1) (bvand (bvnot $e132) (bvnot $e145)))
(define-fun $e149 () (_ BitVec 1) (bvand (bvnot $e147) (bvnot $e148)))
(define-fun $e150 () (_ BitVec 1) (bvand b_berr_1 mvme_dtack_1))
(define-fun $e151 () (_ BitVec 1) (bvand (bvnot mvme_dtack_1) (bvnot $e149)))
(define-fun $e152 () (_ BitVec 1) (bvand (bvnot $e150) (bvnot $e151)))
(define-fun $e153 () (_ BitVec 1) (bvand $e35 (bvnot $e75)))
(define-fun $e154 () (_ BitVec 1) (bvand (bvnot $e35) (bvnot $e108)))
(define-fun $e155 () (_ BitVec 1) (bvand (bvnot $e153) (bvnot $e154)))
(define-fun $e156 () (_ BitVec 1) (bvand $e41 (bvnot $e108)))
(define-fun $e157 () (_ BitVec 1) (bvand (bvnot $e41) (bvnot $e75)))
(define-fun $e158 () (_ BitVec 1) (bvand (bvnot $e156) (bvnot $e157)))
(define-fun $e159 () (_ BitVec 1) (bvand $e40 (bvnot $e158)))
(define-fun $e160 () (_ BitVec 1) (bvand (bvnot $e40) (bvnot $e75)))
(define-fun $e161 () (_ BitVec 1) (bvand (bvnot $e159) (bvnot $e160)))
(define-fun $e162 () (_ BitVec 1) (bvand $e28 (bvnot $e127)))
(define-fun $e163 () (_ BitVec 1) (bvand (bvnot $e128) (bvnot $e162)))
(define-fun $e164 () (_ BitVec 1) (bvand reset_0 (bvnot $e163)))
(define-fun $e165 () (_ BitVec 1) (bvand (bvnot $e27) $e164))
(define-fun $e166 () (_ BitVec 1) (bvand (bvnot $e129) (bvnot $e165)))
(define-fun $e167 () (_ BitVec 1) (bvand (bvnot $e19) (bvnot $e166)))
(define-fun $e168 () (_ BitVec 1) (bvand $e16 $e167))
(define-fun $e169 () (_ BitVec 1) (bvand reset_0 (bvnot $e66)))
(define-fun $e170 () (_ BitVec 1) (bvand (bvnot $e27) $e169))
(define-fun $e171 () (_ BitVec 1) (bvand (bvnot $e129) (bvnot $e170)))
(define-fun $e172 () (_ BitVec 1) (bvand (bvnot $e16) (bvnot $e171)))
(define-fun $e173 () (_ BitVec 1) (bvand (bvnot $e168) (bvnot $e172)))
(define-fun $e174 () (_ BitVec 1) (bvand $e39 (bvnot $e173)))
(define-fun $e175 () (_ BitVec 1) (bvand (bvnot $e39) (bvnot $e161)))
(define-fun $e176 () (_ BitVec 1) (bvand (bvnot $e174) (bvnot $e175)))
(define-fun $e177 () (_ BitVec 1) (bvand (bvnot reset_0) (bvnot sig_local_dtack_0)))
(define-fun $e178 () (_ BitVec 1) (bvand (bvnot $e27) $e177))
(define-fun $e179 () (_ BitVec 1) (bvand (bvnot $e16) (bvnot $e178)))
(define-fun $e180 () (_ BitVec 1) (bvand (bvnot $e106) (bvnot $e179)))
(define-fun $e181 () (_ BitVec 1) (bvand $e38 (bvnot $e180)))
(define-fun $e182 () (_ BitVec 1) (bvand (bvnot $e38) (bvnot $e176)))
(define-fun $e183 () (_ BitVec 1) (bvand (bvnot $e181) (bvnot $e182)))
(define-fun $e184 () (_ BitVec 1) (bvand $e37 (bvnot $e180)))
(define-fun $e185 () (_ BitVec 1) (bvand (bvnot $e37) (bvnot $e183)))
(define-fun $e186 () (_ BitVec 1) (bvand (bvnot $e184) (bvnot $e185)))
(define-fun $e187 () (_ BitVec 1) (bvand $e34 (bvnot $e155)))
(define-fun $e188 () (_ BitVec 1) (bvand (bvnot $e34) (bvnot $e186)))
(define-fun $e189 () (_ BitVec 1) (bvand (bvnot $e187) (bvnot $e188)))
(define-fun $e190 () (_ BitVec 1) (bvand $e33 (bvnot $e173)))
(define-fun $e191 () (_ BitVec 1) (bvand (bvnot $e33) (bvnot $e189)))
(define-fun $e192 () (_ BitVec 1) (bvand (bvnot $e190) (bvnot $e191)))
(define-fun $e193 () (_ BitVec 1) (bvand $e32 (bvnot $e180)))
(define-fun $e194 () (_ BitVec 1) (bvand (bvnot $e32) (bvnot $e192)))
(define-fun $e195 () (_ BitVec 1) (bvand (bvnot $e193) (bvnot $e194)))
(define-fun $e196 () (_ BitVec 1) (bvand $e31 (bvnot $e180)))
(define-fun $e197 () (_ BitVec 1) (bvand (bvnot $e31) (bvnot $e195)))
(define-fun $e198 () (_ BitVec 1) (bvand (bvnot $e196) (bvnot $e197)))
(define-fun $e199 () (_ BitVec 1) (bvand $e30 (bvnot $e180)))
(define-fun $e200 () (_ BitVec 1) (bvand (bvnot $e30) (bvnot $e198)))
(define-fun $e201 () (_ BitVec 1) (bvand (bvnot $e199) (bvnot $e200)))
(define-fun $e202 () (_ BitVec 1) (bvand reset_0 $e128))
(define-fun $e203 () (_ BitVec 1) (bvand (bvnot $e27) (bvnot $e202)))
(define-fun $e204 () (_ BitVec 1) (bvand (bvnot $e69) (bvnot $e203)))
(define-fun $e205 () (_ BitVec 1) (bvand (bvnot $e19) $e204))
(define-fun $e206 () (_ BitVec 1) (bvand $e16 (bvnot $e205)))
(define-fun $e207 () (_ BitVec 1) (bvand (bvnot $e16) (bvnot $e204)))
(define-fun $e208 () (_ BitVec 1) (bvand (bvnot $e206) (bvnot $e207)))
(define-fun $e209 () (_ BitVec 1) (bvand $e29 (bvnot $e208)))
(define-fun $e210 () (_ BitVec 1) (bvand (bvnot $e29) (bvnot $e201)))
(define-fun $e211 () (_ BitVec 1) (bvand (bvnot $e209) (bvnot $e210)))
(define-fun $e212 () (_ BitVec 1) (bvand $e28 (bvnot $e211)))
(define-fun $e213 () (_ BitVec 1) (bvand (bvnot $e28) (bvnot $e108)))
(define-fun $e214 () (_ BitVec 1) (bvand (bvnot $e212) (bvnot $e213)))
(define-fun $e215 () (_ BitVec 1) (bvand reset_0 (bvnot $e214)))
(define-fun $e216 () (_ BitVec 1) (bvand (bvnot reset_0) (bvnot $e75)))
(define-fun $e217 () (_ BitVec 1) (bvand (bvnot $e215) (bvnot $e216)))
(define-fun $e218 () (_ BitVec 1) (bvand $e27 (bvnot $e131)))
(define-fun $e219 () (_ BitVec 1) (bvand (bvnot $e27) (bvnot $e217)))
(define-fun $e220 () (_ BitVec 1) (bvand (bvnot $e218) (bvnot $e219)))
(define-fun $e221 () (_ BitVec 1) (bvand (bvnot $e142) (bvnot $e220)))
(define-fun $e222 () (_ BitVec 1) (bvand (bvnot $e102) (bvnot $e142)))
(define-fun $e223 () (_ BitVec 1) (ite (= berr_0 dtack_frm_vme_1) #b1 #b0))
(define-fun $e224 () (_ BitVec 1) (ite (= berr_0 dtack_frm_vme_0) #b1 #b0))
(define-fun $e225 () (_ BitVec 1) (bvand $e223 (bvnot $e224)))
(define-fun $e226 () (_ BitVec 1) (ite (= mvme_dtack_0 mvme_dtack_1) #b1 #b0))
(define-fun $e227 () (_ BitVec 1) (bvand (bvnot mvme_dtack_1) (bvnot $e146)))
(define-fun $e228 () (_ BitVec 1) (bvand (bvnot $e150) (bvnot $e227)))
(define-fun $e229 () (_ BitVec 1) (ite (= b_berr_0 b_berr_1) #b1 #b0))
(define-fun $e230 () (_ BitVec 1) (bvand $e226 (bvnot $e229)))
(define-fun $e231 () (_ BitVec 1) (bvand (bvnot $e226) (bvnot $e228)))
(define-fun $e232 () (_ BitVec 1) (bvand (bvnot $e230) (bvnot $e231)))
(define-fun $e233 () (_ BitVec 1) (bvand (bvnot $e152) $e225))
(define-fun $e234 () (_ BitVec 1) (bvand (bvnot $e225) (bvnot $e232)))
(define-fun $e235 () (_ BitVec 1) (bvand (bvnot $e233) (bvnot $e234)))
(define-fun $e236 () (_ BitVec 1) (bvand $e222 (bvnot $e235)))
(define-fun $e237 () (_ BitVec 1) (bvand (bvnot $e152) (bvnot $e222)))
(define-fun $e238 () (_ BitVec 1) (bvand (bvnot $e152) (bvnot $e221)))
(define-fun $e239 () (_ BitVec 1) (ite (= sig_local_dtack_0 vme_dtack_1) #b1 #b0))
(define-fun $e240 () (_ BitVec 1) (bvand (bvnot vme_dtack_1) $e35))
(define-fun $e241 () (_ BitVec 1) (bvand (bvnot $e35) (bvnot $e239)))
(define-fun $e242 () (_ BitVec 1) (bvand (bvnot $e240) (bvnot $e241)))
(define-fun $e243 () (_ BitVec 1) (bvand $e41 (bvnot $e239)))
(define-fun $e244 () (_ BitVec 1) (bvand (bvnot vme_dtack_1) (bvnot $e41)))
(define-fun $e245 () (_ BitVec 1) (bvand (bvnot $e243) (bvnot $e244)))
(define-fun $e246 () (_ BitVec 1) (bvand $e40 (bvnot $e245)))
(define-fun $e247 () (_ BitVec 1) (bvand (bvnot vme_dtack_1) (bvnot $e40)))
(define-fun $e248 () (_ BitVec 1) (bvand (bvnot $e246) (bvnot $e247)))
(define-fun $e249 () (_ BitVec 1) (bvand vme_dtack_1 $e39))
(define-fun $e250 () (_ BitVec 1) (bvand (bvnot $e39) (bvnot $e248)))
(define-fun $e251 () (_ BitVec 1) (bvand (bvnot $e249) (bvnot $e250)))
(define-fun $e252 () (_ BitVec 1) (bvand $e38 (bvnot $e239)))
(define-fun $e253 () (_ BitVec 1) (bvand (bvnot $e38) (bvnot $e251)))
(define-fun $e254 () (_ BitVec 1) (bvand (bvnot $e252) (bvnot $e253)))
(define-fun $e255 () (_ BitVec 1) (bvand $e37 (bvnot $e239)))
(define-fun $e256 () (_ BitVec 1) (bvand (bvnot $e37) (bvnot $e254)))
(define-fun $e257 () (_ BitVec 1) (bvand (bvnot $e255) (bvnot $e256)))
(define-fun $e258 () (_ BitVec 1) (bvand $e34 (bvnot $e242)))
(define-fun $e259 () (_ BitVec 1) (bvand (bvnot $e34) (bvnot $e257)))
(define-fun $e260 () (_ BitVec 1) (bvand (bvnot $e258) (bvnot $e259)))
(define-fun $e261 () (_ BitVec 1) (bvand vme_dtack_1 $e33))
(define-fun $e262 () (_ BitVec 1) (bvand (bvnot $e33) (bvnot $e260)))
(define-fun $e263 () (_ BitVec 1) (bvand (bvnot $e261) (bvnot $e262)))
(define-fun $e264 () (_ BitVec 1) (bvand $e32 (bvnot $e239)))
(define-fun $e265 () (_ BitVec 1) (bvand (bvnot $e32) (bvnot $e263)))
(define-fun $e266 () (_ BitVec 1) (bvand (bvnot $e264) (bvnot $e265)))
(define-fun $e267 () (_ BitVec 1) (bvand $e31 (bvnot $e239)))
(define-fun $e268 () (_ BitVec 1) (bvand (bvnot $e31) (bvnot $e266)))
(define-fun $e269 () (_ BitVec 1) (bvand (bvnot $e267) (bvnot $e268)))
(define-fun $e270 () (_ BitVec 1) (bvand $e30 (bvnot $e239)))
(define-fun $e271 () (_ BitVec 1) (bvand (bvnot $e30) (bvnot $e269)))
(define-fun $e272 () (_ BitVec 1) (bvand (bvnot $e270) (bvnot $e271)))
(define-fun $e273 () (_ BitVec 1) (bvand (bvnot vme_dtack_1) $e29))
(define-fun $e274 () (_ BitVec 1) (bvand (bvnot $e29) (bvnot $e272)))
(define-fun $e275 () (_ BitVec 1) (bvand (bvnot $e273) (bvnot $e274)))
(define-fun $e276 () (_ BitVec 1) (bvand $e28 (bvnot $e275)))
(define-fun $e277 () (_ BitVec 1) (bvand (bvnot $e28) (bvnot $e239)))
(define-fun $e278 () (_ BitVec 1) (bvand (bvnot $e276) (bvnot $e277)))
(define-fun $e279 () (_ BitVec 1) (bvand reset_0 (bvnot $e278)))
(define-fun $e280 () (_ BitVec 1) (bvand (bvnot reset_0) (bvnot vme_dtack_1)))
(define-fun $e281 () (_ BitVec 1) (bvand (bvnot $e279) (bvnot $e280)))
(define-fun $e282 () (_ BitVec 1) (bvand $e27 (bvnot $e239)))
(define-fun $e283 () (_ BitVec 1) (bvand (bvnot $e27) (bvnot $e281)))
(define-fun $e284 () (_ BitVec 1) (bvand (bvnot $e282) (bvnot $e283)))
(define-fun $e285 () (_ BitVec 1) (bvand (bvnot vme_dtack_1) $e19))
(define-fun $e286 () (_ BitVec 1) (bvand (bvnot $e19) (bvnot $e284)))
(define-fun $e287 () (_ BitVec 1) (bvand (bvnot $e285) (bvnot $e286)))
(define-fun $e288 () (_ BitVec 1) (bvand $e16 (bvnot $e287)))
(define-fun $e289 () (_ BitVec 1) (bvand (bvnot $e16) (bvnot $e284)))
(define-fun $e290 () (_ BitVec 1) (bvand (bvnot $e288) (bvnot $e289)))
(define-fun $e291 () (_ BitVec 1) (bvand (bvnot mvme_dtack_1) vme_dtack_1))
(define-fun $e292 () (_ BitVec 1) (bvand (bvnot $e220) (bvnot $e225)))
(define-fun $e293 () (_ BitVec 1) (bvand mvme_dtack_1 (bvnot $e290)))
(define-fun $e294 () (_ BitVec 1) (bvand (bvnot $e291) (bvnot $e293)))
(define-fun $e295 () (_ BitVec 1) (bvand mvme_dtack_1 (bvnot $e284)))
(define-fun $e296 () (_ BitVec 1) (bvand (bvnot $e291) (bvnot $e295)))
(define-fun $e297 () (_ BitVec 1) (bvand mvme_dtack_1 (bvnot $e239)))
(define-fun $e298 () (_ BitVec 1) (bvand (bvnot $e291) (bvnot $e297)))
(define-fun $e299 () (_ BitVec 1) (ite (= vme_dtack_0 vme_dtack_1) #b1 #b0))
(define-fun $e300 () (_ BitVec 1) (bvand $e226 (bvnot $e299)))
(define-fun $e301 () (_ BitVec 1) (bvand (bvnot $e226) (bvnot $e298)))
(define-fun $e302 () (_ BitVec 1) (bvand (bvnot $e300) (bvnot $e301)))
(define-fun $e303 () (_ BitVec 1) (bvand $e102 (bvnot $e296)))
(define-fun $e304 () (_ BitVec 1) (bvand (bvnot $e102) (bvnot $e302)))
(define-fun $e305 () (_ BitVec 1) (bvand (bvnot $e303) (bvnot $e304)))
(define-fun $e306 () (_ BitVec 1) (bvand $e292 (bvnot $e305)))
(define-fun $e307 () (_ BitVec 1) (bvand (bvnot $e292) (bvnot $e294)))
(define-fun $e308 () (_ BitVec 1) (bvand (bvnot $e306) (bvnot $e307)))
(define-fun $e309 () (_ BitVec 1) (bvand $e221 $e236))
(define-fun $e310 () (_ BitVec 1) (bvand $e19 (bvnot $e75)))
(define-fun $e311 () (_ BitVec 1) (bvand (bvnot $e16) (bvnot $e220)))
(define-fun $e312 () (_ BitVec 1) (bvand (bvnot $e19) (bvnot $e220)))
(define-fun $e313 () (_ BitVec 1) (bvand (bvnot $e310) (bvnot $e312)))
(define-fun $e314 () (_ BitVec 1) (bvand $e16 (bvnot $e313)))
(define-fun $e315 () (_ BitVec 1) (bvand (bvnot $e311) (bvnot $e314)))
(define-fun $e316 () (_ BitVec 1) (bvand (bvnot $e142) (bvnot $e315)))
(define-fun $e317 () (_ BitVec 1) (bvand $e309 $e316))
(define-fun $e318 () (_ BitVec 1) (bvand (bvnot $e294) (bvnot $e316)))
(define-fun $e319 () (_ BitVec 1) (bvand (bvnot $e308) $e316))
(define-fun $e320 () (_ BitVec 1) (bvand (bvnot $e152) (bvnot $e316)))
(assert (not (= (bvnot $e317) #b0)))
(assert (not (= (bvnot $e318) #b0)))
(assert (not (= (bvnot $e319) #b0)))
(assert (not (= (bvnot $e320) #b0)))
(assert (not (= (bvnot $e238) #b0)))
(assert (not (= (bvnot $e237) #b0)))
(assert (not (= (bvnot $e26) #b0)))
(check-sat)
(exit)
